c File: flat30_3_0.col 0
c 0 0 0
c SOURCE: Joseph Culberson (joe@cs.ualberta.ca)
c DESCRIPTION: Quasi-random coloring problem
c              generated with flatness = 0
c                             probability = 0.200
c                             known coloring = 3
c                             random seed = 229568
c              Creation Date:  Fri Nov 29 22:01:44 1996
c Maximum degree = 6 Minimum degree = 1
c 0 0 0
c cnf created by edge2cnf
p cnf 90 300
-1 -2 0 0
-1 -3 0 0
-2 -3 0 0
1 2 3 0
-4 -5 0 0
-4 -6 0 0
-5 -6 0 0
4 5 6 0
-7 -8 0 0
-7 -9 0 0
-8 -9 0 0
7 8 9 0
-10 -11 0 0
-10 -12 0 0
-11 -12 0 0
10 11 12 0
-13 -14 0 0
-13 -15 0 0
-14 -15 0 0
13 14 15 0
-16 -17 0 0
-16 -18 0 0
-17 -18 0 0
16 17 18 0
-19 -20 0 0
-19 -21 0 0
-20 -21 0 0
19 20 21 0
-22 -23 0 0
-22 -24 0 0
-23 -24 0 0
22 23 24 0
-25 -26 0 0
-25 -27 0 0
-26 -27 0 0
25 26 27 0
-28 -29 0 0
-28 -30 0 0
-29 -30 0 0
28 29 30 0
-31 -32 0 0
-31 -33 0 0
-32 -33 0 0
31 32 33 0
-34 -35 0 0
-34 -36 0 0
-35 -36 0 0
34 35 36 0
-37 -38 0 0
-37 -39 0 0
-38 -39 0 0
37 38 39 0
-40 -41 0 0
-40 -42 0 0
-41 -42 0 0
40 41 42 0
-43 -44 0 0
-43 -45 0 0
-44 -45 0 0
43 44 45 0
-46 -47 0 0
-46 -48 0 0
-47 -48 0 0
46 47 48 0
-49 -50 0 0
-49 -51 0 0
-50 -51 0 0
49 50 51 0
-52 -53 0 0
-52 -54 0 0
-53 -54 0 0
52 53 54 0
-55 -56 0 0
-55 -57 0 0
-56 -57 0 0
55 56 57 0
-58 -59 0 0
-58 -60 0 0
-59 -60 0 0
58 59 60 0
-61 -62 0 0
-61 -63 0 0
-62 -63 0 0
61 62 63 0
-64 -65 0 0
-64 -66 0 0
-65 -66 0 0
64 65 66 0
-67 -68 0 0
-67 -69 0 0
-68 -69 0 0
67 68 69 0
-70 -71 0 0
-70 -72 0 0
-71 -72 0 0
70 71 72 0
-73 -74 0 0
-73 -75 0 0
-74 -75 0 0
73 74 75 0
-76 -77 0 0
-76 -78 0 0
-77 -78 0 0
76 77 78 0
-79 -80 0 0
-79 -81 0 0
-80 -81 0 0
79 80 81 0
-82 -83 0 0
-82 -84 0 0
-83 -84 0 0
82 83 84 0
-85 -86 0 0
-85 -87 0 0
-86 -87 0 0
85 86 87 0
-88 -89 0 0
-88 -90 0 0
-89 -90 0 0
88 89 90 0
-40 -1 0 0
-41 -2 0 0
-42 -3 0 0
-43 -1 0 0
-44 -2 0 0
-45 -3 0 0
-55 -1 0 0
-56 -2 0 0
-57 -3 0 0
-70 -1 0 0
-71 -2 0 0
-72 -3 0 0
-79 -1 0 0
-80 -2 0 0
-81 -3 0 0
-88 -1 0 0
-89 -2 0 0
-90 -3 0 0
-40 -4 0 0
-41 -5 0 0
-42 -6 0 0
-46 -4 0 0
-47 -5 0 0
-48 -6 0 0
-49 -4 0 0
-50 -5 0 0
-51 -6 0 0
-61 -4 0 0
-62 -5 0 0
-63 -6 0 0
-64 -4 0 0
-65 -5 0 0
-66 -6 0 0
-82 -4 0 0
-83 -5 0 0
-84 -6 0 0
-58 -7 0 0
-59 -8 0 0
-60 -9 0 0
-64 -7 0 0
-65 -8 0 0
-66 -9 0 0
-67 -7 0 0
-68 -8 0 0
-69 -9 0 0
-70 -7 0 0
-71 -8 0 0
-72 -9 0 0
-43 -10 0 0
-44 -11 0 0
-45 -12 0 0
-58 -10 0 0
-59 -11 0 0
-60 -12 0 0
-76 -10 0 0
-77 -11 0 0
-78 -12 0 0
-34 -13 0 0
-35 -14 0 0
-36 -15 0 0
-52 -13 0 0
-53 -14 0 0
-54 -15 0 0
-61 -13 0 0
-62 -14 0 0
-63 -15 0 0
-37 -16 0 0
-38 -17 0 0
-39 -18 0 0
-58 -16 0 0
-59 -17 0 0
-60 -18 0 0
-61 -16 0 0
-62 -17 0 0
-63 -18 0 0
-37 -19 0 0
-38 -20 0 0
-39 -21 0 0
-46 -19 0 0
-47 -20 0 0
-48 -21 0 0
-52 -19 0 0
-53 -20 0 0
-54 -21 0 0
-85 -19 0 0
-86 -20 0 0
-87 -21 0 0
-40 -22 0 0
-41 -23 0 0
-42 -24 0 0
-64 -22 0 0
-65 -23 0 0
-66 -24 0 0
-73 -22 0 0
-74 -23 0 0
-75 -24 0 0
-85 -22 0 0
-86 -23 0 0
-87 -24 0 0
-37 -25 0 0
-38 -26 0 0
-39 -27 0 0
-79 -25 0 0
-80 -26 0 0
-81 -27 0 0
-31 -28 0 0
-32 -29 0 0
-33 -30 0 0
-52 -28 0 0
-53 -29 0 0
-54 -30 0 0
-79 -28 0 0
-80 -29 0 0
-81 -30 0 0
-82 -28 0 0
-83 -29 0 0
-84 -30 0 0
-85 -28 0 0
-86 -29 0 0
-87 -30 0 0
-70 -34 0 0
-71 -35 0 0
-72 -36 0 0
-76 -34 0 0
-77 -35 0 0
-78 -36 0 0
-82 -34 0 0
-83 -35 0 0
-84 -36 0 0
-70 -37 0 0
-71 -38 0 0
-72 -39 0 0
-73 -37 0 0
-74 -38 0 0
-75 -39 0 0
-88 -37 0 0
-89 -38 0 0
-90 -39 0 0
-79 -40 0 0
-80 -41 0 0
-81 -42 0 0
-82 -43 0 0
-83 -44 0 0
-84 -45 0 0
-73 -46 0 0
-74 -47 0 0
-75 -48 0 0
-88 -46 0 0
-89 -47 0 0
-90 -48 0 0
-67 -49 0 0
-68 -50 0 0
-69 -51 0 0
-82 -49 0 0
-83 -50 0 0
-84 -51 0 0
-88 -49 0 0
-89 -50 0 0
-90 -51 0 0
-61 -52 0 0
-62 -53 0 0
-63 -54 0 0
-67 -52 0 0
-68 -53 0 0
-69 -54 0 0
-79 -52 0 0
-80 -53 0 0
-81 -54 0 0
-73 -55 0 0
-74 -56 0 0
-75 -57 0 0
-61 -58 0 0
-62 -59 0 0
-63 -60 0 0
-67 -58 0 0
-68 -59 0 0
-69 -60 0 0
-70 -58 0 0
-71 -59 0 0
-72 -60 0 0